50

100 23 300
99 12 298
94 5 283
92 27 291
92 19 285
92 9 277
89 27 288
88 6 267
85 22 285
83 17 288
83 13 293
80 17 294
79 17 258
79 1 252
79 4 258
79 4 280
77 12 258
74 3 272
74 15 235
73 8 254
71 5 278
70 11 227
69 12 266
68 9 229
65 19 257
62 14 219
62 18 215
62 9 223
61 7 270
61 10 234
58 15 200
56 7 244
56 1 217
55 8 291
55 14 204
55 10 255
48 2 279
47 11 180
46 8 256
46 1 297
44 10 198
43 9 277
43 10 143
43 4 253
40 3 142
40 1 153
36 3 213
35 1 141
32 8 195
30 2 296
